c A SAT instance generated from a 3-CNF formula that had 36 clauses and 12 variables
p cnf 12 36
-6 2 8 0
3 -9 11 0
-5 8 4 0
-8 3 -6 0
-6 9 -10 0
-10 -8 -2 0
-11 9 4 0
11 10 -5 0
-11 10 5 0
-9 -3 -6 0
7 -1 6 0
11 -7 -3 0
-4 -10 7 0
9 4 5 0
3 -2 -9 0
-5 -8 -9 0
-4 -9 -6 0
-12 11 1 0
-8 -6 2 0
12 7 -3 0
8 -7 -12 0
1 4 -7 0
-8 -4 2 0
-1 -4 3 0
-9 8 10 0
6 4 -7 0
-4 6 3 0
-10 -12 4 0
-10 3 -4 0
-7 -1 -2 0
3 -7 -2 0
-7 6 -9 0
-4 7 3 0
-12 10 11 0
-6 -4 7 0
-9 -5 4 0
